% Datos generados desde el formulario
n = 2;
m = 2;
cosN = 6000;
cosH = 2000;
cosT = 4000;
capN = 3000;
capH = 1000;
capT = 2000;
G = 50;
ns = 1;
ps = 50;
P = [4000, 6000];
d = [|300, 200
    |500, 400|];
